parte1/nd30.1.lp
\* Problem: nd30 *\

Minimize
 totalcost: + 21 y(1,2) + 5 y(3,2) + 21 y(5,2) + 27 y(6,2) + 34 y(7,2)
 + 5 y(9,2) + 13 y(10,2) + 31 y(12,2) + 37 y(16,2) + 34 y(19,2)
 + 7 y(20,2) + 9 y(2,1) + 22 y(2,3) + 28 y(2,4) + 8 y(2,5) + 29 y(2,8)
 + 14 y(2,9) + 15 y(2,10) + 37 y(2,11) + 31 y(2,13) + 12 y(2,14)
 + 19 y(2,17) + 14 y(2,19) + 35 y(2,20) + 16 y(1,3) + 23 y(5,3)
 + 17 y(6,3) + 26 y(7,3) + 20 y(8,3) + 32 y(9,3) + 13 y(15,3)
 + 32 y(17,3) + 31 y(18,3) + 9 y(20,3) + 25 y(3,1) + 37 y(3,5)
 + 28 y(3,10) + 19 y(3,11) + 22 y(3,13) + 17 y(3,14) + 9 y(3,15)
 + 6 y(3,18) + 11 y(3,20) + 37 y(5,4) + 9 y(6,4) + 21 y(8,4)
 + 26 y(10,4) + 33 y(12,4) + 10 y(14,4) + 20 y(15,4) + 31 y(17,4)
 + 34 y(4,1) + 7 y(4,7) + 26 y(4,9) + 9 y(4,10) + 33 y(4,11)
 + 15 y(4,12) + 14 y(4,13) + 25 y(4,14) + 36 y(4,15) + 35 y(4,16)
 + 10 y(4,17) + 10 y(4,18) + 11 y(4,20) + 4 y(6,5) + 33 y(7,5)
 + 34 y(9,5) + 5 y(10,5) + 16 y(11,5) + 24 y(12,5) + 33 y(16,5)
 + 31 y(17,5) + 21 y(19,5) + 25 y(20,5) + 15 y(5,1) + 13 y(5,6)
 + 40 y(5,11) + 29 y(5,13) + 14 y(5,15) + 32 y(5,17) + 28 y(5,18)
 + 25 y(5,19) + 7 y(1,6) + 36 y(9,6) + 13 y(11,6) + 24 y(15,6)
 + 25 y(17,6) + 21 y(19,6) + 9 y(6,8) + 35 y(6,10) + 25 y(6,13)
 + 5 y(6,15) + 10 y(6,18) + 19 y(6,19) + 6 y(6,20) + 35 y(1,7)
 + 20 y(9,7) + 14 y(13,7) + 25 y(14,7) + 27 y(15,7) + 26 y(17,7)
 + 8 y(18,7) + 8 y(19,7) + 37 y(7,1) + 11 y(7,9) + 5 y(7,10)
 + 22 y(7,11) + 19 y(7,12) + 27 y(7,13) + 21 y(7,17) + 33 y(7,18)
 + 10 y(7,20) + 15 y(9,8) + 13 y(10,8) + 27 y(12,8) + 30 y(16,8)
 + 18 y(20,8) + 5 y(8,11) + 28 y(8,14) + 38 y(8,16) + 23 y(8,18)
 + 18 y(8,20) + 34 y(1,9) + 5 y(10,9) + 10 y(11,9) + 34 y(12,9)
 + 7 y(15,9) + 14 y(17,9) + 10 y(18,9) + 19 y(9,1) + 11 y(9,11)
 + 4 y(9,12) + 14 y(9,16) + 17 y(9,17) + 5 y(9,18) + 14 y(9,19)
 + 10 y(9,20) + 15 y(11,10) + 33 y(12,10) + 21 y(13,10) + 37 y(14,10)
 + 16 y(15,10) + 19 y(17,10) + 5 y(19,10) + 19 y(10,1) + 32 y(10,12)
 + 19 y(10,13) + 28 y(10,14) + 20 y(10,15) + 4 y(10,17) + 9 y(10,20)
 + 14 y(13,11) + 26 y(15,11) + 32 y(17,11) + 33 y(18,11) + 39 y(11,15)
 + 36 y(11,17) + 37 y(11,18) + 17 y(11,19) + 13 y(11,20) + 5 y(13,12)
 + 23 y(17,12) + 19 y(18,12) + 4 y(12,13) + 12 y(12,15) + 13 y(12,16)
 + 20 y(12,18) + 40 y(12,19) + 29 y(1,13) + 4 y(14,13) + 27 y(16,13)
 + 26 y(18,13) + 11 y(20,13) + 9 y(13,14) + 5 y(15,14) + 17 y(16,14)
 + 5 y(20,14) + 29 y(16,15) + 22 y(17,15) + 37 y(19,15) + 21 y(20,15)
 + 26 y(15,18) + 38 y(15,20) + 10 y(1,16) + 22 y(18,16) + 39 y(20,16)
 + 23 y(16,1) + 36 y(16,17) + 12 y(16,19) + 19 y(16,20) + 14 y(18,17)
 + 32 y(19,17) + 26 y(20,17) + 4 y(17,1) + 24 y(17,19) + 19 y(1,18)
 + 27 y(18,1) + 8 y(18,19) + 40 y(1,19) + 18 y(20,19) + 4 y(19,1)
 + 18 y(19,20) + 32 y(20,1)

Subject To
 is_path(2): + y(1,2) + y(3,2) + y(5,2) + y(6,2) + y(7,2) + y(9,2)
 + y(10,2) + y(12,2) + y(16,2) + y(19,2) + y(20,2) - y(2,1) - y(2,3)
 - y(2,4) - y(2,5) - y(2,8) - y(2,9) - y(2,10) - y(2,11) - y(2,13)
 - y(2,14) - y(2,17) - y(2,19) - y(2,20) = -0
 is_path(3): - y(3,2) + y(2,3) + y(1,3) + y(5,3) + y(6,3) + y(7,3)
 + y(8,3) + y(9,3) + y(15,3) + y(17,3) + y(18,3) + y(20,3) - y(3,1)
 - y(3,5) - y(3,10) - y(3,11) - y(3,13) - y(3,14) - y(3,15) - y(3,18)
 - y(3,20) = -0
 is_path(4): + y(2,4) + y(5,4) + y(6,4) + y(8,4) + y(10,4) + y(12,4)
 + y(14,4) + y(15,4) + y(17,4) - y(4,1) - y(4,7) - y(4,9) - y(4,10)
 - y(4,11) - y(4,12) - y(4,13) - y(4,14) - y(4,15) - y(4,16) - y(4,17)
 - y(4,18) - y(4,20) = -0
 is_path(5): - y(5,2) + y(2,5) - y(5,3) + y(3,5) - y(5,4) + y(6,5)
 + y(7,5) + y(9,5) + y(10,5) + y(11,5) + y(12,5) + y(16,5) + y(17,5)
 + y(19,5) + y(20,5) - y(5,1) - y(5,6) - y(5,11) - y(5,13) - y(5,15)
 - y(5,17) - y(5,18) - y(5,19) = -0
 is_path(6): - y(6,2) - y(6,3) - y(6,4) - y(6,5) + y(5,6) + y(1,6)
 + y(9,6) + y(11,6) + y(15,6) + y(17,6) + y(19,6) - y(6,8) - y(6,10)
 - y(6,13) - y(6,15) - y(6,18) - y(6,19) - y(6,20) = -0
 is_path(7): - y(7,2) - y(7,3) + y(4,7) - y(7,5) + y(1,7) + y(9,7)
 + y(13,7) + y(14,7) + y(15,7) + y(17,7) + y(18,7) + y(19,7) - y(7,1)
 - y(7,9) - y(7,10) - y(7,11) - y(7,12) - y(7,13) - y(7,17) - y(7,18)
 - y(7,20) = -0
 is_path(8): + y(2,8) - y(8,3) - y(8,4) + y(6,8) + y(9,8) + y(10,8)
 + y(12,8) + y(16,8) + y(20,8) - y(8,11) - y(8,14) - y(8,16) - y(8,18)
 - y(8,20) = -0
 is_path(9): - y(9,2) + y(2,9) - y(9,3) + y(4,9) - y(9,5) - y(9,6)
 - y(9,7) + y(7,9) - y(9,8) + y(1,9) + y(10,9) + y(11,9) + y(12,9)
 + y(15,9) + y(17,9) + y(18,9) - y(9,1) - y(9,11) - y(9,12) - y(9,16)
 - y(9,17) - y(9,18) - y(9,19) - y(9,20) = -0
 is_path(10): - y(10,2) + y(2,10) + y(3,10) - y(10,4) + y(4,10)
 - y(10,5) + y(6,10) + y(7,10) - y(10,8) - y(10,9) + y(11,10) + y(12,10)
 + y(13,10) + y(14,10) + y(15,10) + y(17,10) + y(19,10) - y(10,1)
 - y(10,12) - y(10,13) - y(10,14) - y(10,15) - y(10,17) - y(10,20) = -0
 is_path(11): + y(2,11) + y(3,11) + y(4,11) - y(11,5) + y(5,11)
 - y(11,6) + y(7,11) + y(8,11) - y(11,9) + y(9,11) - y(11,10) + y(13,11)
 + y(15,11) + y(17,11) + y(18,11) - y(11,15) - y(11,17) - y(11,18)
 - y(11,19) - y(11,20) = -0
 is_path(12): - y(12,2) - y(12,4) + y(4,12) - y(12,5) + y(7,12)
 - y(12,8) - y(12,9) + y(9,12) - y(12,10) + y(10,12) + y(13,12)
 + y(17,12) + y(18,12) - y(12,13) - y(12,15) - y(12,16) - y(12,18)
 - y(12,19) = -0
 is_path(13): + y(2,13) + y(3,13) + y(4,13) + y(5,13) + y(6,13)
 - y(13,7) + y(7,13) - y(13,10) + y(10,13) - y(13,11) - y(13,12)
 + y(12,13) + y(1,13) + y(14,13) + y(16,13) + y(18,13) + y(20,13)
 - y(13,14) = -0
 is_path(14): + y(2,14) + y(3,14) - y(14,4) + y(4,14) - y(14,7)
 + y(8,14) - y(14,10) + y(10,14) - y(14,13) + y(13,14) + y(15,14)
 + y(16,14) + y(20,14) = -0
 is_path(15): - y(15,3) + y(3,15) - y(15,4) + y(4,15) + y(5,15)
 - y(15,6) + y(6,15) - y(15,7) - y(15,9) - y(15,10) + y(10,15)
 - y(15,11) + y(11,15) + y(12,15) - y(15,14) + y(16,15) + y(17,15)
 + y(19,15) + y(20,15) - y(15,18) - y(15,20) = -0
 is_path(16): - y(16,2) + y(4,16) - y(16,5) - y(16,8) + y(8,16)
 + y(9,16) + y(12,16) - y(16,13) - y(16,14) - y(16,15) + y(1,16)
 + y(18,16) + y(20,16) - y(16,1) - y(16,17) - y(16,19) - y(16,20) = -0
 is_path(17): + y(2,17) - y(17,3) - y(17,4) + y(4,17) - y(17,5)
 + y(5,17) - y(17,6) - y(17,7) + y(7,17) - y(17,9) + y(9,17) - y(17,10)
 + y(10,17) - y(17,11) + y(11,17) - y(17,12) - y(17,15) + y(16,17)
 + y(18,17) + y(19,17) + y(20,17) - y(17,1) - y(17,19) = -0
 is_path(18): - y(18,3) + y(3,18) + y(4,18) + y(5,18) + y(6,18)
 - y(18,7) + y(7,18) + y(8,18) - y(18,9) + y(9,18) - y(18,11) + y(11,18)
 - y(18,12) + y(12,18) - y(18,13) + y(15,18) - y(18,16) - y(18,17)
 + y(1,18) - y(18,1) - y(18,19) = -0
 is_path(19): - y(19,2) + y(2,19) - y(19,5) + y(5,19) - y(19,6)
 + y(6,19) - y(19,7) + y(9,19) - y(19,10) + y(11,19) + y(12,19)
 - y(19,15) + y(16,19) - y(19,17) + y(17,19) + y(18,19) + y(1,19)
 + y(20,19) - y(19,1) - y(19,20) = -0
 outcoming_s: + y(1,2) + y(1,3) + y(1,6) + y(1,7) + y(1,9) + y(1,13)
 + y(1,16) + y(1,18) + y(1,19) = 1
 incoming_t: + y(2,20) + y(3,20) + y(4,20) + y(6,20) + y(7,20) + y(8,20)
 + y(9,20) + y(10,20) + y(11,20) + y(15,20) + y(16,20) + y(19,20) = 1
 sa_weight: + 12 y(1,2) + 8 y(3,2) + 13 y(5,2) + 12 y(6,2) + 15 y(7,2)
 + 10 y(9,2) + 17 y(10,2) + 14 y(12,2) + 11 y(16,2) + 10 y(19,2)
 + 6 y(20,2) + 9 y(2,1) + 7 y(2,3) + 18 y(2,4) + 6 y(2,5) + 18 y(2,8)
 + 20 y(2,9) + 15 y(2,10) + 13 y(2,11) + 17 y(2,13) + 18 y(2,14)
 + 12 y(2,17) + 5 y(2,19) + 11 y(2,20) + 11 y(1,3) + 17 y(5,3)
 + 19 y(6,3) + 6 y(7,3) + 11 y(8,3) + 20 y(9,3) + 17 y(15,3) + 7 y(17,3)
 + 20 y(18,3) + 11 y(20,3) + 5 y(3,1) + 15 y(3,5) + 9 y(3,10)
 + 5 y(3,11) + 5 y(3,13) + 16 y(3,14) + 11 y(3,15) + 15 y(3,18)
 + 18 y(3,20) + 15 y(5,4) + 13 y(6,4) + 12 y(8,4) + 12 y(10,4)
 + 12 y(12,4) + 8 y(14,4) + 7 y(15,4) + 17 y(17,4) + 7 y(4,1)
 + 14 y(4,7) + 8 y(4,9) + 13 y(4,10) + 17 y(4,11) + 12 y(4,12)
 + 15 y(4,13) + 7 y(4,14) + 5 y(4,15) + 9 y(4,16) + 18 y(4,17)
 + 12 y(4,18) + 15 y(4,20) + 8 y(6,5) + 17 y(7,5) + 12 y(9,5)
 + 12 y(10,5) + 15 y(11,5) + 10 y(12,5) + 14 y(16,5) + 7 y(17,5)
 + 6 y(19,5) + 9 y(20,5) + 12 y(5,1) + 20 y(5,6) + 9 y(5,11) + 8 y(5,13)
 + 16 y(5,15) + 20 y(5,17) + 12 y(5,18) + 6 y(5,19) + 16 y(1,6)
 + 8 y(9,6) + 8 y(11,6) + 14 y(15,6) + 16 y(17,6) + 12 y(19,6)
 + 8 y(6,8) + 17 y(6,10) + 8 y(6,13) + 12 y(6,15) + 19 y(6,18)
 + 14 y(6,19) + 7 y(6,20) + 14 y(1,7) + 15 y(9,7) + 10 y(13,7)
 + 15 y(14,7) + 13 y(15,7) + 6 y(17,7) + 19 y(18,7) + 15 y(19,7)
 + 5 y(7,1) + 12 y(7,9) + 18 y(7,10) + 15 y(7,11) + 13 y(7,12)
 + 6 y(7,13) + 13 y(7,17) + 19 y(7,18) + 20 y(7,20) + 10 y(9,8)
 + 13 y(10,8) + 16 y(12,8) + 17 y(16,8) + 10 y(20,8) + 16 y(8,11)
 + 13 y(8,14) + 17 y(8,16) + 17 y(8,18) + 5 y(8,20) + 18 y(1,9)
 + 19 y(10,9) + 15 y(11,9) + 18 y(12,9) + 12 y(15,9) + 6 y(17,9)
 + 7 y(18,9) + 19 y(9,1) + 20 y(9,11) + 13 y(9,12) + 12 y(9,16)
 + 13 y(9,17) + 5 y(9,18) + 16 y(9,19) + 15 y(9,20) + 16 y(11,10)
 + 6 y(12,10) + 14 y(13,10) + 12 y(14,10) + 10 y(15,10) + 14 y(17,10)
 + 13 y(19,10) + 20 y(10,1) + 8 y(10,12) + 19 y(10,13) + 14 y(10,14)
 + 19 y(10,15) + 17 y(10,17) + 7 y(10,20) + 18 y(13,11) + 15 y(15,11)
 + 20 y(17,11) + 17 y(18,11) + 17 y(11,15) + 13 y(11,17) + 11 y(11,18)
 + 13 y(11,19) + 11 y(11,20) + 16 y(13,12) + 19 y(17,12) + 15 y(18,12)
 + 10 y(12,13) + 13 y(12,15) + 10 y(12,16) + 18 y(12,18) + 18 y(12,19)
 + 15 y(1,13) + 19 y(14,13) + 13 y(16,13) + 6 y(18,13) + 7 y(20,13)
 + 15 y(13,14) + 7 y(15,14) + 20 y(16,14) + 10 y(20,14) + 5 y(16,15)
 + 14 y(17,15) + 13 y(19,15) + 19 y(20,15) + 6 y(15,18) + 13 y(15,20)
 + 15 y(1,16) + 8 y(18,16) + 20 y(20,16) + 8 y(16,1) + 20 y(16,17)
 + 17 y(16,19) + 7 y(16,20) + 8 y(18,17) + 5 y(19,17) + 20 y(20,17)
 + 12 y(17,1) + 5 y(17,19) + 17 y(1,18) + 13 y(18,1) + 15 y(18,19)
 + 13 y(1,19) + 14 y(20,19) + 8 y(19,1) + 8 y(19,20) + 5 y(20,1) <= 40

Bounds
 0 <= y(1,2) <= 1
 0 <= y(3,2) <= 1
 0 <= y(5,2) <= 1
 0 <= y(6,2) <= 1
 0 <= y(7,2) <= 1
 0 <= y(9,2) <= 1
 0 <= y(10,2) <= 1
 0 <= y(12,2) <= 1
 0 <= y(16,2) <= 1
 0 <= y(19,2) <= 1
 0 <= y(20,2) <= 1
 0 <= y(2,1) <= 1
 0 <= y(2,3) <= 1
 0 <= y(2,4) <= 1
 0 <= y(2,5) <= 1
 0 <= y(2,8) <= 1
 0 <= y(2,9) <= 1
 0 <= y(2,10) <= 1
 0 <= y(2,11) <= 1
 0 <= y(2,13) <= 1
 0 <= y(2,14) <= 1
 0 <= y(2,17) <= 1
 0 <= y(2,19) <= 1
 0 <= y(2,20) <= 1
 0 <= y(1,3) <= 1
 0 <= y(5,3) <= 1
 0 <= y(6,3) <= 1
 0 <= y(7,3) <= 1
 0 <= y(8,3) <= 1
 0 <= y(9,3) <= 1
 0 <= y(15,3) <= 1
 0 <= y(17,3) <= 1
 0 <= y(18,3) <= 1
 0 <= y(20,3) <= 1
 0 <= y(3,1) <= 1
 0 <= y(3,5) <= 1
 0 <= y(3,10) <= 1
 0 <= y(3,11) <= 1
 0 <= y(3,13) <= 1
 0 <= y(3,14) <= 1
 0 <= y(3,15) <= 1
 0 <= y(3,18) <= 1
 0 <= y(3,20) <= 1
 0 <= y(5,4) <= 1
 0 <= y(6,4) <= 1
 0 <= y(8,4) <= 1
 0 <= y(10,4) <= 1
 0 <= y(12,4) <= 1
 0 <= y(14,4) <= 1
 0 <= y(15,4) <= 1
 0 <= y(17,4) <= 1
 0 <= y(4,1) <= 1
 0 <= y(4,7) <= 1
 0 <= y(4,9) <= 1
 0 <= y(4,10) <= 1
 0 <= y(4,11) <= 1
 0 <= y(4,12) <= 1
 0 <= y(4,13) <= 1
 0 <= y(4,14) <= 1
 0 <= y(4,15) <= 1
 0 <= y(4,16) <= 1
 0 <= y(4,17) <= 1
 0 <= y(4,18) <= 1
 0 <= y(4,20) <= 1
 0 <= y(6,5) <= 1
 0 <= y(7,5) <= 1
 0 <= y(9,5) <= 1
 0 <= y(10,5) <= 1
 0 <= y(11,5) <= 1
 0 <= y(12,5) <= 1
 0 <= y(16,5) <= 1
 0 <= y(17,5) <= 1
 0 <= y(19,5) <= 1
 0 <= y(20,5) <= 1
 0 <= y(5,1) <= 1
 0 <= y(5,6) <= 1
 0 <= y(5,11) <= 1
 0 <= y(5,13) <= 1
 0 <= y(5,15) <= 1
 0 <= y(5,17) <= 1
 0 <= y(5,18) <= 1
 0 <= y(5,19) <= 1
 0 <= y(1,6) <= 1
 0 <= y(9,6) <= 1
 0 <= y(11,6) <= 1
 0 <= y(15,6) <= 1
 0 <= y(17,6) <= 1
 0 <= y(19,6) <= 1
 0 <= y(6,8) <= 1
 0 <= y(6,10) <= 1
 0 <= y(6,13) <= 1
 0 <= y(6,15) <= 1
 0 <= y(6,18) <= 1
 0 <= y(6,19) <= 1
 0 <= y(6,20) <= 1
 0 <= y(1,7) <= 1
 0 <= y(9,7) <= 1
 0 <= y(13,7) <= 1
 0 <= y(14,7) <= 1
 0 <= y(15,7) <= 1
 0 <= y(17,7) <= 1
 0 <= y(18,7) <= 1
 0 <= y(19,7) <= 1
 0 <= y(7,1) <= 1
 0 <= y(7,9) <= 1
 0 <= y(7,10) <= 1
 0 <= y(7,11) <= 1
 0 <= y(7,12) <= 1
 0 <= y(7,13) <= 1
 0 <= y(7,17) <= 1
 0 <= y(7,18) <= 1
 0 <= y(7,20) <= 1
 0 <= y(9,8) <= 1
 0 <= y(10,8) <= 1
 0 <= y(12,8) <= 1
 0 <= y(16,8) <= 1
 0 <= y(20,8) <= 1
 0 <= y(8,11) <= 1
 0 <= y(8,14) <= 1
 0 <= y(8,16) <= 1
 0 <= y(8,18) <= 1
 0 <= y(8,20) <= 1
 0 <= y(1,9) <= 1
 0 <= y(10,9) <= 1
 0 <= y(11,9) <= 1
 0 <= y(12,9) <= 1
 0 <= y(15,9) <= 1
 0 <= y(17,9) <= 1
 0 <= y(18,9) <= 1
 0 <= y(9,1) <= 1
 0 <= y(9,11) <= 1
 0 <= y(9,12) <= 1
 0 <= y(9,16) <= 1
 0 <= y(9,17) <= 1
 0 <= y(9,18) <= 1
 0 <= y(9,19) <= 1
 0 <= y(9,20) <= 1
 0 <= y(11,10) <= 1
 0 <= y(12,10) <= 1
 0 <= y(13,10) <= 1
 0 <= y(14,10) <= 1
 0 <= y(15,10) <= 1
 0 <= y(17,10) <= 1
 0 <= y(19,10) <= 1
 0 <= y(10,1) <= 1
 0 <= y(10,12) <= 1
 0 <= y(10,13) <= 1
 0 <= y(10,14) <= 1
 0 <= y(10,15) <= 1
 0 <= y(10,17) <= 1
 0 <= y(10,20) <= 1
 0 <= y(13,11) <= 1
 0 <= y(15,11) <= 1
 0 <= y(17,11) <= 1
 0 <= y(18,11) <= 1
 0 <= y(11,15) <= 1
 0 <= y(11,17) <= 1
 0 <= y(11,18) <= 1
 0 <= y(11,19) <= 1
 0 <= y(11,20) <= 1
 0 <= y(13,12) <= 1
 0 <= y(17,12) <= 1
 0 <= y(18,12) <= 1
 0 <= y(12,13) <= 1
 0 <= y(12,15) <= 1
 0 <= y(12,16) <= 1
 0 <= y(12,18) <= 1
 0 <= y(12,19) <= 1
 0 <= y(1,13) <= 1
 0 <= y(14,13) <= 1
 0 <= y(16,13) <= 1
 0 <= y(18,13) <= 1
 0 <= y(20,13) <= 1
 0 <= y(13,14) <= 1
 0 <= y(15,14) <= 1
 0 <= y(16,14) <= 1
 0 <= y(20,14) <= 1
 0 <= y(16,15) <= 1
 0 <= y(17,15) <= 1
 0 <= y(19,15) <= 1
 0 <= y(20,15) <= 1
 0 <= y(15,18) <= 1
 0 <= y(15,20) <= 1
 0 <= y(1,16) <= 1
 0 <= y(18,16) <= 1
 0 <= y(20,16) <= 1
 0 <= y(16,1) <= 1
 0 <= y(16,17) <= 1
 0 <= y(16,19) <= 1
 0 <= y(16,20) <= 1
 0 <= y(18,17) <= 1
 0 <= y(19,17) <= 1
 0 <= y(20,17) <= 1
 0 <= y(17,1) <= 1
 0 <= y(17,19) <= 1
 0 <= y(1,18) <= 1
 0 <= y(18,1) <= 1
 0 <= y(18,19) <= 1
 0 <= y(1,19) <= 1
 0 <= y(20,19) <= 1
 0 <= y(19,1) <= 1
 0 <= y(19,20) <= 1
 0 <= y(20,1) <= 1

Generals
 y(1,2)
 y(3,2)
 y(5,2)
 y(6,2)
 y(7,2)
 y(9,2)
 y(10,2)
 y(12,2)
 y(16,2)
 y(19,2)
 y(20,2)
 y(2,1)
 y(2,3)
 y(2,4)
 y(2,5)
 y(2,8)
 y(2,9)
 y(2,10)
 y(2,11)
 y(2,13)
 y(2,14)
 y(2,17)
 y(2,19)
 y(2,20)
 y(1,3)
 y(5,3)
 y(6,3)
 y(7,3)
 y(8,3)
 y(9,3)
 y(15,3)
 y(17,3)
 y(18,3)
 y(20,3)
 y(3,1)
 y(3,5)
 y(3,10)
 y(3,11)
 y(3,13)
 y(3,14)
 y(3,15)
 y(3,18)
 y(3,20)
 y(5,4)
 y(6,4)
 y(8,4)
 y(10,4)
 y(12,4)
 y(14,4)
 y(15,4)
 y(17,4)
 y(4,1)
 y(4,7)
 y(4,9)
 y(4,10)
 y(4,11)
 y(4,12)
 y(4,13)
 y(4,14)
 y(4,15)
 y(4,16)
 y(4,17)
 y(4,18)
 y(4,20)
 y(6,5)
 y(7,5)
 y(9,5)
 y(10,5)
 y(11,5)
 y(12,5)
 y(16,5)
 y(17,5)
 y(19,5)
 y(20,5)
 y(5,1)
 y(5,6)
 y(5,11)
 y(5,13)
 y(5,15)
 y(5,17)
 y(5,18)
 y(5,19)
 y(1,6)
 y(9,6)
 y(11,6)
 y(15,6)
 y(17,6)
 y(19,6)
 y(6,8)
 y(6,10)
 y(6,13)
 y(6,15)
 y(6,18)
 y(6,19)
 y(6,20)
 y(1,7)
 y(9,7)
 y(13,7)
 y(14,7)
 y(15,7)
 y(17,7)
 y(18,7)
 y(19,7)
 y(7,1)
 y(7,9)
 y(7,10)
 y(7,11)
 y(7,12)
 y(7,13)
 y(7,17)
 y(7,18)
 y(7,20)
 y(9,8)
 y(10,8)
 y(12,8)
 y(16,8)
 y(20,8)
 y(8,11)
 y(8,14)
 y(8,16)
 y(8,18)
 y(8,20)
 y(1,9)
 y(10,9)
 y(11,9)
 y(12,9)
 y(15,9)
 y(17,9)
 y(18,9)
 y(9,1)
 y(9,11)
 y(9,12)
 y(9,16)
 y(9,17)
 y(9,18)
 y(9,19)
 y(9,20)
 y(11,10)
 y(12,10)
 y(13,10)
 y(14,10)
 y(15,10)
 y(17,10)
 y(19,10)
 y(10,1)
 y(10,12)
 y(10,13)
 y(10,14)
 y(10,15)
 y(10,17)
 y(10,20)
 y(13,11)
 y(15,11)
 y(17,11)
 y(18,11)
 y(11,15)
 y(11,17)
 y(11,18)
 y(11,19)
 y(11,20)
 y(13,12)
 y(17,12)
 y(18,12)
 y(12,13)
 y(12,15)
 y(12,16)
 y(12,18)
 y(12,19)
 y(1,13)
 y(14,13)
 y(16,13)
 y(18,13)
 y(20,13)
 y(13,14)
 y(15,14)
 y(16,14)
 y(20,14)
 y(16,15)
 y(17,15)
 y(19,15)
 y(20,15)
 y(15,18)
 y(15,20)
 y(1,16)
 y(18,16)
 y(20,16)
 y(16,1)
 y(16,17)
 y(16,19)
 y(16,20)
 y(18,17)
 y(19,17)
 y(20,17)
 y(17,1)
 y(17,19)
 y(1,18)
 y(18,1)
 y(18,19)
 y(1,19)
 y(20,19)
 y(19,1)
 y(19,20)
 y(20,1)

End
